data/solutions/recovery/degenerate/moderate/flexible/degenerate_moderate_instance20/50.sol
Elapsed time: 5.09
Upper bound: 154562038.0
Planning weighted value: 2232998540.0
C[0]=154562038.0
C[1]=154365790.0
C[2]=154087041.0
C[3]=153934997.0
y[0]=1
y[1]=3
y[2]=2
y[3]=3
y[4]=1
y[5]=2
y[6]=0
y[7]=0
y[8]=2
y[9]=1
y[10]=2
y[11]=1
y[12]=2
y[13]=0
y[14]=0
y[15]=1
y[16]=3
y[17]=3
y[18]=1
y[19]=1
y[20]=0
y[21]=1
y[22]=3
y[23]=2
y[24]=0
y[25]=3
y[26]=0
y[27]=0
y[28]=0
y[29]=1
y[30]=0
y[31]=3
y[32]=3
y[33]=3
y[34]=2
y[35]=2
